/*********************************************
    * Lab01 - FCR
    * Author: Coso
    * Creation Date: Mar, 2019
    *********************************************/
instance_name = "small_instance_14_FCR";

d = 2;
r = 3;

SCj = [123 126];
Dk = [81 60 38];

Cjk = [[63 74 41]
 [51 55 36]];
Fjk = [[766 459 785]
 [288 550 345]];
